Read MPS format model from file dat/rmp/DER_24_32768_30.mps
Reading time = 1.36 seconds
: 32792 rows, 155720 columns, 3522411 nonzeros
Gurobi Optimizer version 9.0.0 build v9.0.0rc2 (linux64)
Optimize a model with 32792 rows, 155720 columns and 3522411 nonzeros
Model fingerprint: 0x1819750b
Coefficient statistics:
  Matrix range     [5e-07, 1e+01]
  Objective range  [2e-01, 1e+03]
  Bounds range     [2e+05, 2e+05]
  RHS range        [1e+00, 1e+00]
Ordering time: 0.02s

Barrier statistics:
 AA' NZ     : 7.443e+05
 Factor NZ  : 1.048e+06 (roughly 80 MBytes of memory)
 Factor Ops : 3.642e+07 (less than 1 second per iteration)
 Threads    : 1

                  Objective                Residual
Iter       Primal          Dual         Primal    Dual     Compl     Time
   0   1.43761325e+09 -8.33689299e+07  1.40e+08 6.10e-03  3.89e+05     1s
   1   2.93154207e+07 -1.72634935e+07  2.77e+06 1.82e-12  7.81e+03     1s
   2   1.30882982e+06 -1.07426260e+07  1.20e+05 3.64e-12  4.02e+02     1s
   3   4.89262571e+04 -7.18402415e+06  1.81e-09 3.64e-12  4.66e+01     1s
   4   4.77970058e+04 -7.46057906e+04  5.11e-10 1.82e-12  7.88e-01     2s
   5   4.76038341e+04  3.33930452e+04  4.54e-10 3.64e-12  9.15e-02     2s
   6   4.69525312e+04  4.19419360e+04  6.68e-10 1.82e-12  3.22e-02     2s
   7   4.65896742e+04  4.57712964e+04  4.81e-10 3.64e-12  5.26e-03     2s
   8   4.63660942e+04  4.60692907e+04  6.76e-10 3.64e-12  1.91e-03     3s
   9   4.62767839e+04  4.61794373e+04  1.07e-09 3.64e-12  6.25e-04     3s
  10   4.62425975e+04  4.62023698e+04  1.43e-09 1.82e-12  2.58e-04     3s
  11   4.62355444e+04  4.62138719e+04  1.73e-09 1.82e-12  1.39e-04     3s
  12   4.62300394e+04  4.62174002e+04  3.41e-09 1.82e-12  8.12e-05     4s
  13   4.62284547e+04  4.62193663e+04  2.56e-09 1.82e-12  5.84e-05     4s
  14   4.62278752e+04  4.62207754e+04  2.05e-09 1.82e-12  4.56e-05     4s
  15   4.62269451e+04  4.62218570e+04  1.94e-09 1.82e-12  3.27e-05     4s
  16   4.62248788e+04  4.62224137e+04  7.50e-09 1.82e-12  1.58e-05     4s
  17   4.62246667e+04  4.62226961e+04  6.01e-09 1.82e-12  1.27e-05     5s
  18   4.62245867e+04  4.62227230e+04  6.38e-09 1.82e-12  1.20e-05     5s
  19   4.62238076e+04  4.62228365e+04  1.79e-08 1.82e-12  6.24e-06     5s
  20   4.62235989e+04  4.62229828e+04  1.69e-08 1.82e-12  3.96e-06     5s
  21   4.62235432e+04  4.62230165e+04  1.16e-08 1.82e-12  3.38e-06     5s
  22   4.62234016e+04  4.62230984e+04  8.67e-09 4.73e-12  1.95e-06     6s
  23   4.62233558e+04  4.62231342e+04  1.22e-08 8.49e-12  1.42e-06     6s
  24   4.62233217e+04  4.62231550e+04  1.20e-08 1.12e-11  1.07e-06     6s
  25   4.62232869e+04  4.62231696e+04  1.50e-08 1.18e-11  7.54e-07     6s
  26   4.62232603e+04  4.62231807e+04  2.73e-08 1.08e-11  5.11e-07     6s
  27   4.62232448e+04  4.62231847e+04  3.09e-08 1.05e-11  3.86e-07     7s
  28   4.62232306e+04  4.62231869e+04  1.01e-07 9.56e-12  2.81e-07     7s
  29   4.62232287e+04  4.62231872e+04  9.72e-08 8.98e-12  2.66e-07     7s
  30   4.62232257e+04  4.62231874e+04  9.71e-08 8.59e-12  2.46e-07     7s
  31   4.62232184e+04  4.62231880e+04  7.98e-08 7.81e-12  1.95e-07     7s
  32   4.62232127e+04  4.62231892e+04  1.89e-07 6.49e-12  1.51e-07     8s
  33   4.62232099e+04  4.62231897e+04  2.44e-07 5.78e-12  1.30e-07     8s
  34   4.62232076e+04  4.62231900e+04  4.70e-07 5.71e-12  1.13e-07     8s
  35   4.62232047e+04  4.62231904e+04  9.84e-07 4.51e-12  9.19e-08     8s
  36   4.62232036e+04  4.62231905e+04  1.04e-06 4.11e-12  8.42e-08     8s
  37   4.62232019e+04  4.62231907e+04  1.07e-06 3.64e-12  7.16e-08     9s
  38   4.62232010e+04  4.62231908e+04  1.15e-06 3.46e-12  6.56e-08     9s
  39   4.62231994e+04  4.62231911e+04  1.22e-06 3.64e-12  5.32e-08     9s
  40   4.62231992e+04  4.62231912e+04  1.31e-06 3.64e-12  5.16e-08     9s
  41   4.62231982e+04  4.62231912e+04  1.52e-06 2.02e-12  4.47e-08     9s
  42   4.62231979e+04  4.62231913e+04  1.78e-06 3.64e-12  4.26e-08    10s
  43   4.62231970e+04  4.62231913e+04  2.26e-06 1.92e-12  3.63e-08    10s
  44   4.62231961e+04  4.62231914e+04  1.80e-06 1.82e-12  3.01e-08    10s
  45   4.62231952e+04  4.62231915e+04  1.77e-06 1.82e-12  2.43e-08    10s
  46   4.62231947e+04  4.62231915e+04  1.63e-06 1.82e-12  2.06e-08    10s
  47   4.62231944e+04  4.62231915e+04  1.92e-06 1.82e-12  1.83e-08    11s
  48   4.62231933e+04  4.62231915e+04  1.87e-06 1.82e-12  1.16e-08    11s
  49   4.62231928e+04  4.62231916e+04  1.65e-06 1.82e-12  8.04e-09    11s
  50   4.62231924e+04  4.62231916e+04  2.09e-06 1.82e-12  4.98e-09    11s
  51   4.62231920e+04  4.62231916e+04  4.53e-06 3.64e-12  2.67e-09    11s
  52   4.62231918e+04  4.62231916e+04  6.83e-06 3.64e-12  1.49e-09    12s
  53   4.62231918e+04  4.62231916e+04  5.99e-06 1.82e-12  1.17e-09    12s
  54   4.62231917e+04  4.62231916e+04  6.33e-06 1.82e-12  1.02e-09    12s
  55   4.62231917e+04  4.62231916e+04  1.24e-05 3.64e-12  5.52e-10    12s
  56   4.62231916e+04  4.62231916e+04  1.56e-05 3.64e-12  1.38e-11    12s

Barrier solved model in 56 iterations and 12.25 seconds
Optimal objective 4.62238076e+04

Solve time: 12.261482377
Barrier iterations: 56
